c FILE: i080-344

c SOURCE: From steinlib

c DESCRIPTION: Steinlib instance with 80 nodes and 632 edges.

p edge 80 632
e 1 7
e 1 9
e 1 11
e 1 15
e 1 20
e 1 22
e 1 24
e 1 27
e 1 30
e 1 34
e 1 39
e 1 40
e 1 45
e 1 49
e 1 53
e 1 58
e 1 59
e 1 62
e 1 66
e 1 68
e 2 4
e 2 7
e 2 8
e 2 15
e 2 17
e 2 20
e 2 32
e 2 35
e 2 36
e 2 47
e 2 48
e 2 56
e 2 57
e 2 60
e 2 62
e 2 64
e 2 65
e 3 4
e 3 10
e 3 11
e 3 21
e 3 27
e 3 32
e 3 43
e 3 64
e 4 8
e 4 9
e 4 10
e 4 11
e 4 12
e 4 15
e 4 18
e 4 25
e 4 37
e 4 38
e 4 40
e 4 46
e 4 60
e 4 61
e 4 66
e 4 71
e 4 74
e 4 75
e 5 16
e 5 18
e 5 19
e 5 31
e 5 37
e 5 46
e 5 55
e 5 60
e 5 67
e 5 74
e 5 78
e 6 18
e 6 33
e 6 42
e 6 45
e 6 51
e 6 53
e 6 58
e 6 68
e 6 69
e 6 71
e 6 74
e 6 77
e 7 8
e 7 15
e 7 18
e 7 23
e 7 37
e 7 40
e 7 45
e 7 48
e 7 54
e 7 67
e 7 68
e 7 73
e 8 15
e 8 24
e 8 30
e 8 31
e 8 32
e 8 36
e 8 38
e 8 40
e 8 47
e 8 54
e 8 56
e 8 65
e 8 66
e 8 68
e 8 75
e 8 79
e 9 15
e 9 21
e 9 25
e 9 27
e 9 28
e 9 34
e 9 38
e 9 40
e 9 44
e 9 46
e 9 48
e 9 59
e 9 66
e 9 69
e 9 71
e 9 73
e 9 74
e 9 77
e 10 17
e 10 19
e 10 22
e 10 26
e 10 28
e 10 38
e 10 39
e 10 49
e 10 51
e 10 61
e 10 65
e 10 78
e 11 23
e 11 45
e 11 52
e 11 54
e 11 55
e 11 57
e 11 60
e 11 70
e 11 75
e 11 76
e 11 77
e 11 78
e 11 80
e 12 20
e 12 25
e 12 26
e 12 33
e 12 37
e 12 41
e 12 44
e 12 45
e 12 49
e 12 50
e 12 53
e 12 58
e 12 61
e 12 68
e 12 71
e 12 73
e 12 80
e 13 17
e 13 33
e 13 36
e 13 42
e 13 48
e 13 58
e 13 60
e 13 62
e 13 63
e 13 65
e 13 73
e 13 77
e 13 78
e 13 80
e 14 17
e 14 22
e 14 39
e 14 46
e 14 52
e 14 55
e 14 58
e 14 64
e 14 70
e 14 76
e 14 80
e 15 23
e 15 30
e 15 32
e 15 38
e 15 39
e 15 41
e 15 43
e 15 44
e 15 46
e 15 51
e 15 59
e 15 63
e 15 68
e 15 71
e 15 80
e 16 18
e 16 33
e 16 45
e 16 47
e 16 49
e 16 50
e 16 55
e 16 56
e 16 69
e 16 71
e 16 75
e 16 77
e 16 78
e 17 18
e 17 23
e 17 28
e 17 29
e 17 37
e 17 42
e 17 53
e 17 56
e 17 62
e 17 73
e 17 76
e 17 80
e 18 22
e 18 28
e 18 37
e 18 49
e 18 54
e 18 55
e 18 64
e 18 66
e 18 68
e 18 70
e 19 22
e 19 53
e 19 57
e 19 60
e 19 65
e 19 70
e 19 73
e 19 77
e 20 24
e 20 27
e 20 42
e 20 43
e 20 64
e 20 70
e 21 22
e 21 23
e 21 24
e 21 28
e 21 31
e 21 32
e 21 36
e 21 41
e 21 42
e 21 44
e 21 63
e 21 64
e 21 67
e 21 71
e 21 74
e 21 76
e 21 78
e 21 80
e 22 27
e 22 29
e 22 33
e 22 34
e 22 35
e 22 42
e 22 46
e 22 67
e 22 68
e 23 24
e 23 28
e 23 29
e 23 34
e 23 37
e 23 38
e 23 39
e 23 42
e 23 43
e 23 46
e 23 67
e 23 73
e 23 76
e 23 77
e 23 78
e 24 27
e 24 29
e 24 33
e 24 39
e 24 42
e 24 43
e 24 44
e 24 46
e 24 49
e 24 51
e 24 53
e 24 63
e 24 71
e 24 76
e 24 77
e 25 27
e 25 34
e 25 43
e 25 45
e 25 46
e 25 56
e 25 60
e 25 65
e 25 72
e 25 76
e 25 79
e 26 33
e 26 38
e 26 62
e 26 63
e 26 64
e 26 65
e 27 36
e 27 42
e 27 43
e 27 55
e 27 57
e 27 59
e 27 63
e 27 65
e 27 66
e 27 69
e 27 72
e 27 77
e 27 79
e 28 33
e 28 45
e 28 47
e 28 49
e 28 51
e 28 53
e 28 54
e 28 58
e 28 68
e 28 72
e 28 73
e 29 35
e 29 37
e 29 38
e 29 45
e 29 56
e 29 57
e 29 61
e 29 70
e 29 73
e 29 75
e 29 76
e 29 79
e 29 80
e 30 40
e 30 42
e 30 49
e 30 53
e 30 64
e 30 65
e 30 67
e 30 71
e 30 80
e 31 35
e 31 36
e 31 37
e 31 40
e 31 44
e 31 45
e 31 52
e 31 53
e 31 75
e 32 35
e 32 36
e 32 42
e 32 43
e 32 44
e 32 45
e 32 47
e 32 48
e 32 61
e 32 68
e 32 70
e 32 71
e 32 74
e 32 78
e 33 41
e 33 49
e 33 62
e 33 69
e 33 78
e 34 36
e 34 37
e 34 38
e 34 51
e 34 54
e 34 61
e 34 68
e 35 36
e 35 50
e 35 51
e 35 55
e 35 74
e 36 37
e 36 45
e 36 50
e 36 54
e 36 57
e 36 63
e 36 68
e 36 74
e 36 75
e 36 78
e 36 80
e 37 40
e 37 43
e 37 51
e 37 71
e 37 72
e 37 78
e 37 79
e 38 45
e 38 50
e 38 66
e 38 69
e 38 70
e 39 43
e 39 45
e 39 64
e 39 65
e 39 69
e 39 72
e 40 42
e 40 46
e 40 56
e 40 59
e 40 64
e 40 76
e 41 47
e 41 51
e 41 55
e 41 58
e 41 61
e 41 68
e 41 74
e 42 46
e 42 55
e 42 56
e 42 59
e 42 64
e 42 66
e 43 47
e 43 52
e 43 54
e 43 56
e 43 58
e 43 61
e 43 63
e 43 68
e 43 69
e 43 78
e 44 45
e 44 47
e 44 49
e 44 51
e 44 63
e 44 64
e 44 72
e 44 77
e 44 79
e 45 53
e 45 54
e 45 60
e 45 61
e 45 65
e 45 67
e 45 68
e 45 80
e 46 47
e 46 50
e 46 62
e 46 65
e 46 67
e 46 70
e 46 71
e 46 74
e 46 75
e 47 54
e 47 60
e 47 61
e 47 72
e 48 51
e 48 52
e 48 59
e 48 65
e 48 73
e 48 78
e 48 79
e 48 80
e 49 53
e 49 60
e 49 63
e 49 65
e 49 70
e 49 72
e 49 73
e 49 80
e 50 52
e 50 54
e 50 63
e 50 64
e 50 65
e 50 71
e 50 72
e 50 79
e 51 52
e 51 55
e 51 58
e 51 61
e 51 67
e 51 69
e 51 72
e 51 78
e 52 56
e 52 59
e 52 65
e 52 72
e 52 76
e 52 80
e 53 55
e 53 57
e 53 58
e 53 61
e 53 69
e 53 78
e 53 80
e 54 56
e 54 60
e 54 64
e 54 70
e 54 77
e 55 65
e 55 75
e 55 79
e 56 57
e 56 63
e 56 66
e 56 76
e 56 79
e 57 63
e 57 65
e 57 72
e 57 75
e 57 80
e 58 62
e 58 67
e 58 74
e 58 76
e 59 67
e 59 68
e 59 69
e 59 73
e 59 75
e 59 76
e 59 78
e 60 63
e 60 64
e 60 66
e 60 67
e 60 68
e 60 69
e 60 71
e 60 76
e 60 79
e 61 63
e 61 68
e 61 71
e 61 76
e 62 73
e 62 79
e 63 76
e 63 77
e 63 78
e 64 65
e 64 74
e 64 75
e 65 72
e 65 73
e 65 74
e 65 75
e 65 78
e 66 77
e 66 78
e 67 72
e 67 74
e 68 74
e 68 77
e 68 78
e 69 70
e 69 74
e 69 79
e 70 71
e 70 78
e 71 78
e 72 73
e 73 79
e 74 79
e 75 79
e 77 78
e 77 79
e 78 80
e 79 80
